(set-logic QF_S)
(declare-fun var0 () String)
(declare-fun var1 () String)
(declare-fun var2 () String)
(declare-fun var3 () String)
(declare-fun var4 () Int)
(declare-fun var5 () Int)
(declare-fun var6 () Int)
(assert (> (str.to.int var0) (str.len var1)))
(assert (str.suffixof var2 var3))
(assert (str.suffixof var1 var2))
(assert (str.prefixof (str.replace var1 var0 var3) (str.at (str.substr var1 var4 var5) (str.indexof var3 var0 var6))))
(check-sat)